w = 15;

n = 25;

r2 = array1d(1..2, [7, 12]);

r3 = array1d(1..2, [7, 7]);

r4 = array1d(1..2, [1, 7]);

r5 = array1d(1..2, [1, 5]);

r6 = array1d(1..2, [2, 3]);

r7 = array1d(1..2, [2, 6]);

r8 = array1d(1..2, [2, 7]);

r9 = array1d(1..2, [2, 5]);

r10 = array1d(1..2, [1, 3]);

r11 = array1d(1..2, [1, 6]);

r12 = array1d(1..2, [6, 12]);

r13 = array1d(1..2, [6, 9]);

r14 = array1d(1..2, [2, 12]);

r15 = array1d(1..2, [2, 7]);

r16 = array1d(1..2, [3, 10]);

r17 = array1d(1..2, [1, 4]);

r18 = array1d(1..2, [1, 5]);

r19 = array1d(1..2, [3, 16]);

r20 = array1d(1..2, [3, 5]);

r21 = array1d(1..2, [2, 4]);

r22 = array1d(1..2, [2, 5]);

r23 = array1d(1..2, [3, 10]);

r24 = array1d(1..2, [3, 9]);

r25 = array1d(1..2, [3, 16]);

r26 = array1d(1..2, [3, 5]);

